c partition 4 of 4
p cnf 20 26
-6 -2 -5 0
-10 9 -8 0
-15 19 14 0
14 10 -9 0
14 -2 15 0
-16 -14 -20 0
-16 -4 18 0
15 17 -2 0
-2 -19 -9 0
15 11 -4 0
-17 -2 -8 0
11 4 -14 0
-14 16 -9 0
16 7 4 0
-5 -12 15 0
11 13 10 0
-16 -11 -2 0
-19 -18 -1 0
8 -3 13 0
-4 15 -7 0
13 -19 -4 0
-3 -5 -7 0
-19 7 8 0
-5 -13 15 0
15 -9 3 0
-6 16 1 0
